; benchmark generated from python API
(set-info :status unknown)
(declare-fun v52 () Bool)
(declare-fun v28 () Bool)
(declare-fun v28_prime () Bool)
(declare-fun v12 () Bool)
(declare-fun v14 () Bool)
(declare-fun v20_prime () Bool)
(declare-fun v20 () Bool)
(declare-fun v48 () Bool)
(declare-fun i6 () Bool)
(declare-fun v30 () Bool)
(declare-fun v16_prime () Bool)
(declare-fun v32 () Bool)
(declare-fun v42 () Bool)
(declare-fun v24_prime () Bool)
(declare-fun v44_prime () Bool)
(declare-fun i10 () Bool)
(declare-fun i4 () Bool)
(declare-fun v48_prime () Bool)
(declare-fun v50_prime () Bool)
(declare-fun v12_prime () Bool)
(declare-fun i2 () Bool)
(declare-fun v44 () Bool)
(declare-fun v54_prime () Bool)
(declare-fun v26_prime () Bool)
(declare-fun v54 () Bool)
(declare-fun v22_prime () Bool)
(declare-fun v16 () Bool)
(declare-fun v34 () Bool)
(declare-fun v24 () Bool)
(declare-fun v32_prime () Bool)
(declare-fun v26 () Bool)
(declare-fun v30_prime () Bool)
(declare-fun v42_prime () Bool)
(declare-fun v18 () Bool)
(declare-fun v18_prime () Bool)
(declare-fun v46 () Bool)
(declare-fun v14_prime () Bool)
(declare-fun v40 () Bool)
(declare-fun i8 () Bool)
(declare-fun v36 () Bool)
(declare-fun v34_prime () Bool)
(declare-fun v22 () Bool)
(declare-fun v38_prime () Bool)
(declare-fun v50 () Bool)
(declare-fun v46_prime () Bool)
(declare-fun v52_prime () Bool)
(declare-fun v36_prime () Bool)
(declare-fun v40_prime () Bool)
(declare-fun v38 () Bool)
(assert
 (= v52 false))
(assert
 (= v28 false))
(assert
 (= v28_prime true))
(assert
 (= v12 false))
(assert
 (= v14 true))
(assert
 (= v20_prime false))
(assert
 (= v20 true))
(assert
 (= v48 true))
(assert
 (= i6 true))
(assert
 (= v30 false))
(assert
 (= v16_prime false))
(assert
 (= v32 false))
(assert
 (= v42 false))
(assert
 (= v24_prime false))
(assert
 (= v44_prime true))
(assert
 (= i10 true))
(assert
 (= i4 false))
(assert
 (= v48_prime true))
(assert
 (= v50_prime false))
(assert
 (= v12_prime false))
(assert
 (= i2 true))
(assert
 (= v44 true))
(assert
 (= v54_prime true))
(assert
 (= v26_prime true))
(assert
 (= v54 true))
(assert
 (= v22_prime true))
(assert
 (= v16 true))
(assert
 (= v34 false))
(assert
 (= v24 false))
(assert
 (= v32_prime false))
(assert
 (= v26 true))
(assert
 (= v30_prime false))
(assert
 (= v42_prime false))
(assert
 (= v18 true))
(assert
 (= v18_prime true))
(assert
 (= v46 false))
(assert
 (= v14_prime true))
(assert
 (= v40 true))
(assert
 (= i8 true))
(assert
 (= v36 true))
(assert
 (= v34_prime true))
(assert
 (= v22 false))
(assert
 (= v38_prime false))
(assert
 (= v50 false))
(assert
 (= v46_prime true))
(assert
 (= v52_prime true))
(assert
 (= v36_prime true))
(assert
 (= v40_prime true))
(assert
 (= v38 false))
(assert
 (let (($x59 (not v40)))
 (let (($x72 (not v28)))
 (let (($x67 (and (not (and (not v18) v16)) (not (and (and v54 v16) v18)))))
 (let (($x80 (and (not (and (and (not (and (and v54 v16) v20)) v22) v28)) (not (and (and (not (and (not $x67) v20)) v22) $x72)))))
 (let (($x104 (not v36)))
 (let (($x90 (not v20)))
 (let (($x89 (not (and (not (and (not v52) v16)) (not (and (not $x67) v52))))))
 (let (($x101 (not (and (not (and (not (and (and v54 v16) $x90)) v22)) v28))))
 (let (($x105 (and (and $x101 (not (and (not (and (not (and $x89 $x90)) v22)) $x72))) $x104)))
 (let (($x108 (and (not $x105) (not (and (not $x80) v36)))))
 (let (($x347 (not i10)))
 (let (($x340 (not i8)))
 (let (($x1383 (not (and v54 (not v22)))))
 (let (($x1379 (and (not (and (and (and v18 v16) v52) $x90)) (not (and v20 v16)))))
 (let (($x1392 (not (and (not (and (not (and v22 v16)) $x1383)) v28))))
 (let (($x1394 (and $x1392 (not (and (not (and (not (and (not $x1379) v22)) $x1383)) $x72)))))
 (let (($x1402 (not (and (not (and (and v18 v16) v20)) (not (and $x90 v16))))))
 (let (($x1410 (not (and (not (and (not (and (not (and $x1402 v22)) $x1383)) $x72)) $x1392))))
 (let (($x1415 (not (and (not (and $x1410 $x104)) (not (and (not $x1394) v36))))))
 (let (($x1599 (not (and $x104 i6))))
 (let (($x1429 (not (and $x90 i6))))
 (let (($x1431 (not (and (not (and (not (and (not v46) (not v18))) v20)) $x1429))))
 (let (($x1436 (and (not (and (not (and (not v46) (not v18))) (not v22))) (not (and $x1431 v22)))))
 (let (($x1449 (not (and (not (and $x90 (not i6))) v22))))
 (let (($x236 (not v22)))
 (let (($x1054 (not (and (not v46) $x90))))
 (let (($x1447 (and (and (not (and (and (not v46) (not v16)) v20)) $x1054) $x236)))
 (let (($x1455 (and (not (and (not (and (not $x1447) $x1449)) v28)) (not (and (not $x1436) $x72)))))
 (let (($x253 (not v24)))
 (let (($x1463 (not (and (not (and (and (and (not v46) v38) v54) v16)) v18))))
 (let (($x84 (not v52)))
 (let (($x1469 (and (not (and $x1463 i6)) (not (and (not (and v18 (not v16))) (not i6))))))
 (let (($x1476 (not (and (and (not (and (not $x1469) $x84)) (not (and $x1463 v52))) v20))))
 (let (($x820 (not v46)))
 (let (($x304 (not v44)))
 (let (($x451 (not (and v38 v34))))
 (let (($x1485 (not (and (not (and (not (and (not v38) v14)) (not v34))) $x451))))
 (let (($x1490 (and (not (and (not (and $x1485 v42)) (not (and (not v42) v38)))) $x304)))
 (let (($x1496 (and (not (and (not (and (not $x1490) (not (and v44 v38)))) $x820)) v18)))
 (let (($x167 (not v34)))
 (let (($x446 (not (and v38 v14))))
 (let (($x151 (not v14)))
 (let (($x441 (not (and v38 v26))))
 (let (($x443 (not (and $x441 (not (and (not (and (not v38) v32)) (not v26)))))))
 (let (($x445 (not (and $x443 $x151))))
 (let (($x453 (not (and (not (and (not (and $x445 $x446)) $x167)) $x451))))
 (let (($x463 (not (and $x453 v42))))
 (let (($x1506 (and (not (and (not (and $x443 (not v42))) (not (and $x1485 v42)))) $x304)))
 (let (($x1509 (and (not $x1506) (not (and (not (and (not (and $x443 (not v42))) $x463)) v44)))))
 (let (($x1517 (not (and (not (and (and (not (and (not $x1509) $x820)) v18) i6)) $x84))))
 (let (($x1523 (and (not (and (and $x1517 (not (and (not $x1496) v52))) $x236)) (not (and (not (and $x1476 $x1429)) v22)))))
 (let (($x265 (not v16)))
 (let (($x295 (not v42)))
 (let (($x1274 (not (and (not (and (not (and (not v38) v30)) (not v26))) $x441))))
 (let (($x1537 (and (not (and (not (and (not (and $x1274 $x167)) $x451)) v42)) (not (and $x1274 $x295)))))
 (let (($x1547 (and (not (and $x1274 v14)) (not (and (and (and (not v38) (not v30)) (not v26)) $x151)))))
 (let (($x1554 (and (not (and (not (and (not $x1547) $x167)) (not (and $x1274 v34)))) $x295)))
 (let (($x1558 (not (and (not $x1554) (not (and (not (and (not v38) v34)) v42))))))
 (let (($x1564 (and (not (and (not (and $x1558 $x304)) (not (and (not $x1537) v44)))) v54)))
 (let (($x1571 (and (not (and (and (not (and $x1564 $x265)) v18) i6)) (not (and (and v18 v16) (not i6))))))
 (let (($x1575 (and (not (and $x1571 v20)) (not (and (not (and (and v46 v18) i6)) $x90)))))
 (let (($x1583 (and (not (and (not (and (not (and $x1575 $x236)) $x1449)) v28)) (not (and (not $x1523) $x72)))))
 (let (($x1590 (and (not (and (and (and $x90 i6) v22) (not v48))) (not (and (not $x1583) v48)))))
 (let (($x1597 (and (not (and (not (and (not $x1590) $x253)) (not (and (not $x1455) v24)))) v36)))
 (let (($x1608 (and (not (and (and (not (and (not $x1597) $x1599)) $x108) v40)) (not (and (and (and (not $x1597) $x1599) $x108) v40)))))
 (let (($x1610 (and $x1608 (not (and (not (and (and (and $x1415 $x340) $x347) (not $x108))) $x59)))))
 (let (($x1612 (and $x1610 (not (and (and (and (and $x1415 $x340) $x347) (not $x108)) $x59)))))
 (let (($x1616 (and (not (and (not $x108) v40)) (not (and (not (and (not $x1597) $x1599)) $x108)))))
 (let (($x1620 (and (not (and (not $x1616) v40)) (not (and (and (and (and $x1415 $x340) $x347) (not $x108)) $x59)))))
 (let (($x2012 (not (and (not (and $x1612 v40)) (not (and (not $x1620) (not $x1612)))))))
 (let (($x1244 (and (not (and (not (and v22 v20)) $x104)) (not (and (and v22 $x90) v36)))))
 (let (($x272 (and (not (and $x84 (not v18))) (not (and (not (and v18 $x265)) v52)))))
 (let (($x277 (not (and (not $x272) $x90))))
 (let (($x283 (and (not (and (not (and (not (and v20 (not v18))) $x277)) v22)) (not (and $x236 (not v18))))))
 (let (($x287 (not (and v28 $x90))))
 (let (($x300 (not (and (not (and (not (and $x167 $x151)) $x295)) (not (and v42 v38))))))
 (let (($x308 (and (not (and (not (and (and $x167 $x151) $x295)) $x304)) (not (and $x300 v44)))))
 (let (($x315 (not (and (not (and v44 v42)) (not v54)))))
 (let (($x298 (not (and v42 v38))))
 (let (($x164 (not (and v38 $x151))))
 (let (($x129 (not v38)))
 (let (($x141 (not (and (not (and v32 (not v30))) (not v50)))))
 (let (($x140 (not (and (not (and (not v32) (not v30))) v50))))
 (let (($x132 (not v26)))
 (let (($x159 (not (and (not (and (and (not (and (not v50) v30)) $x140) $x129)) $x132))))
 (let (($x162 (and (not (and $x159 (not (and (not (and (and $x140 $x141) $x129)) v26)))) v14)))
 (let (($x322 (and (not (and (not (and (and $x140 $x141) $x129)) v34)) (not (and (not (and (not $x162) $x164)) $x167)))))
 (let (($x327 (not (and (not (and (not $x322) $x295)) $x298))))
 (let (($x334 (and (not (and (not (and (and (and v38 $x151) $x167) $x295)) $x298)) v44)))
 (let (($x338 (and (not (and (and (and (and v38 $x151) $x167) $x295) $x304)) (not $x334))))
 (let (($x348 (and (not (and (not (and $x327 i8)) (not (and (not $x338) $x340)))) $x347)))
 (let (($x354 (and (and (not (and (not $x348) (not (and $x327 i10)))) v54) v16)))
 (let (($x357 (and (not $x354) (not (and (not (and $x315 (not (and (not $x308) v54)))) $x265)))))
 (let (($x366 (not (and (not (and (not (and v38 $x340)) (not (and $x327 i8)))) $x347))))
 (let (($x371 (and (not (and (not (and $x366 (not (and $x327 i10)))) v54)) v16)))
 (let (($x377 (and (not (and (not (and $x371 v18)) $x84)) (not (and (not (and $x357 v18)) v52)))))
 (let (($x389 (not (and (not (and (and (not (and v50 v30)) $x141) $x129)) v34))))
 (let (($x197 (not (and (not (and (and (not (and v50 v30)) $x141) $x129)) v26))))
 (let (($x205 (not (and (not (and $x129 (not v30))) $x132))))
 (let (($x223 (not (and (not (and $x205 $x197)) v14))))
 (let (($x393 (not (and (not (and (not (and (not (and $x223 $x164)) $x167)) $x389)) $x295))))
 (let (($x410 (not (and (not (and (not (and (not v50) (not v32))) $x129)) v34))))
 (let (($x405 (not (and (not (and (not (and (not v50) (not v32))) $x129)) $x151))))
 (let (($x217 (not (and (not (and (not (and (not v50) (not v32))) $x129)) v26))))
 (let (($x407 (not (and (not (and (not (and (not (and v38 $x132)) $x217)) v14)) $x405))))
 (let (($x414 (not (and (not (and (not (and $x407 $x167)) $x410)) v42))))
 (let (($x420 (and (not (and (not (and $x414 $x393)) $x304)) (not (and (not (and $x393 $x298)) v44)))))
 (let (($x421 (not $x420)))
 (let (($x427 (and (not (and (not (and $x421 i8)) (not (and (not $x338) $x340)))) $x347)))
 (let (($x434 (and (not (and (not (and (not $x427) (not (and $x421 i10)))) v54)) $x315)))
 (let (($x462 (not (and (not (and (not (and (not (and $x445 $x223)) $x167)) $x389)) $x295))))
 (let (($x472 (and (not (and (not (and $x462 $x414)) $x304)) (not (and (not (and $x462 $x463)) v44)))))
 (let (($x484 (and (not (and (not (and (not (and $x453 $x295)) $x298)) $x304)) (not (and $x453 v44)))))
 (let (($x491 (and (not (and (not (and (not $x484) $x340)) (not (and (not $x472) i8)))) $x347)))
 (let (($x496 (and (and (and (not $x491) (not (and (not $x472) i10))) v54) v18)))
 (let (($x501 (and (not (and (not $x496) $x84)) (not (and (not (and $x434 v18)) v52)))))
 (let (($x506 (and (not (and (not $x501) $x236)) (not (and (not (and (not (and (not $x377) v20)) $x277)) v22)))))
 (let (($x516 (and (not (and (not (and $x287 (not (and (not $x283) $x72)))) (not v48))) (not (and (not (and (not (and (not $x506) $x72)) $x287)) v48)))))
 (let (($x521 (and (not (and (not $x516) $x253)) (not (and (not (and $x287 (not (and (not $x283) $x72)))) v24)))))
 (let (($x528 (and (not (and (not (and (not v54) v18)) v52)) (not (and $x84 (not v18))))))
 (let (($x532 (and (not (and (not $x528) $x236)) (not (and (not (and (not (and v20 (not v18))) $x277)) v22)))))
 (let (($x541 (and (not (and (not (and (not (and (not $x532) $x72)) $x287)) $x104)) (not (and (not $x521) v36)))))
 (let (($x780 (and (and (and (and (not v32) (not v30)) v50) $x129) v26)))
 (let (($x788 (and (not (and (not (and $x780 v14)) $x167)) (not (and (not $x780) v34)))))
 (let (($x803 (and (not (and (not (and (and $x129 (not v32)) v26)) v14)) (not (and (not (and $x129 (not v32))) $x151)))))
 (let (($x808 (and (not (and (not $x803) $x167)) (not (and (not (and $x129 (not v32))) v34)))))
 (let (($x815 (and (not (and (not (and (not $x808) v42)) (not (and (not $x788) $x295)))) $x304)))
 (let (($x821 (and (not (and (not $x815) (not (and (not (and $x788 $x295)) v44)))) $x820)))
 (let (($x828 (and (not (and (not (and $x414 (not (and (not $x322) $x295)))) $x304)) (not (and $x327 v44)))))
 (let (($x835 (not (and (and (and (not (and $x828 v46)) (not $x821)) v54) v16))))
 (let (($x843 (not (and v34 v32))))
 (let (($x844 (and (not (and (not (and (and (not v32) v26) v14)) $x167)) $x843)))
 (let (($x855 (and (not (and (not (and (not v32) v26)) v14)) (not (and v32 $x151)))))
 (let (($x864 (and (not (and (not (and (not (and (not $x855) $x167)) $x843)) v42)) (not (and (not $x844) $x295)))))
 (let (($x869 (and (not (and (not $x864) $x304)) (not (and (not (and $x844 $x295)) v44)))))
 (let (($x879 (and (not (and (not (and (and (not v50) (not v32)) v26)) v14)) (not (and (not (and (not v50) (not v32))) $x151)))))
 (let (($x884 (and (not (and (not $x879) $x167)) (not (and (not (and (not v50) (not v32))) v34)))))
 (let (($x891 (and (not (and (not (and (and $x884 v42) $x304)) v46)) (not (and (not $x869) $x820)))))
 (let (($x898 (and (and (not (and (not (and $x891 v54)) $x84)) (not (and $x835 v52))) v20)))
 (let (($x909 (not (and (not (and (and (and v32 (not v30)) v50) $x129)) v34))))
 (let (($x907 (and (not (and (and (and (and v32 (not v30)) v50) $x129) v14)) $x167)))
 (let (($x917 (and (not (and $x420 v46)) (not (and (not (and (and (not $x907) $x909) $x295)) $x820)))))
 (let (($x925 (and (not (and (not (and $x421 v46)) (not v54))) (not (and (not $x917) v54)))))
 (let (($x934 (and (not (and (and (and v50 v32) v14) $x167)) (not (and (and v50 v32) v34)))))
 (let (($x944 (not (and (and (and (and (and (not v32) $x132) $x151) $x167) v42) $x304))))
 (let (($x948 (and (not (and $x944 v46)) (not (and (not (and (not $x934) $x295)) $x820)))))
 (let (($x955 (and (not (and (not (and (not $x948) $x84)) (not (and (not $x925) v52)))) $x236)))
 (let (($x972 (and (not (and (not (and (and (not v50) v32) $x129)) v26)) (not (and (not (and (not (and v50 v32)) $x129)) $x132)))))
 (let (($x981 (and (not (and (not (and (not (and (not $x972) v14)) $x164)) $x167)) (not (and (not (and (and (not v50) v32) $x129)) v34)))))
 (let (($x992 (and (not (and (not (and $x129 v32)) v26)) (not (and v38 $x132)))))
 (let (($x997 (and (not (and (not $x992) v14)) (not (and (not (and $x129 v32)) $x151)))))
 (let (($x1002 (and (not (and (not $x997) $x167)) (not (and (not (and $x129 v32)) v34)))))
 (let (($x1008 (and (not (and (not (and (not $x1002) v42)) (not (and (not $x981) $x295)))) $x304)))
 (let (($x1011 (and (not $x1008) (not (and (not (and (not (and (not $x981) $x295)) $x298)) v44)))))
 (let (($x1022 (and (not (and (not (and (not (and $x295 v38)) $x414)) $x304)) (not (and v44 v38)))))
 (let (($x1025 (not (and (not $x1022) v46))))
 (let (($x1031 (and (not (and (not (and $x1025 (not (and (not $x1011) $x820)))) v54)) v16)))
 (let (($x1047 (and (not (and (not v54) v46)) (not (and (not (and (not (and (not $x828) $x820)) $x1025)) v54)))))
 (let (($x1055 (and (not (and (not (and (not (and $x1047 v16)) v18)) v20)) $x1054)))
 (let (($x1060 (and (not (and (not $x1055) $x236)) (not (and (not (and (and (not $x1031) v18) v20)) v22)))))
 (let (($x1065 (and (not (and (not $x1060) v28)) (not (and (not (and (not $x955) (not (and (not $x898) v22)))) $x72)))))
 (let (($x1073 (not (and (not (and (and (and v46 $x90) $x236) v28)) (not v48)))))
 (let (($x2005 (not (and (and (and $x1073 (not (and (not $x1065) v48))) $x253) v36))))
 (not (and $x2005 (not $x541) $x1244 $x820 $x2012))))))))))))))))))))))))))))))))))))))))))))))))))))))))))))))))))))))))))))))))))))))))))))))))))))))))))))))))))))))))))))))))))))))))))))))))))))))))))))))))))))))
(check-sat)
